138151
0,86,43,65,58,9,26,27,75,88,92,11,91,22,79,56,82,33,25,49,67,98,18,8,105,7,96,54,28,29,4,51,64,30,97,41,80,68,12,87,39,55,19,15,63,89,16,20,76,5,45,85,21,61,24,44,99,50,81,71,1,32,83,52,6,17,93,69,36,48,38,72,47,84,35,70,53,94,66,40,10,103,37,104,100,2,77,95,59,90,78,42,14,3,74,31,62,34,102,60,46,13,73,101,23,57,0